c description: Tseitin formula on , with even charge
c generator: CNFgen (0.9.0)
c copyright: (C) 2012-2020 Massimo Lauria <massimo.lauria@uniroma1.it>
c url: https://massimolauria.net/cnfgen
c
p cnf 40 460
1 2 -3 0
1 -2 3 0
-1 2 3 0
-1 -2 -3 0
4 5 6 7 -8 0
4 5 6 -7 8 0
4 5 -6 7 8 0
4 5 -6 -7 -8 0
4 -5 6 7 8 0
4 -5 6 -7 -8 0
4 -5 -6 7 -8 0
4 -5 -6 -7 8 0
-4 5 6 7 8 0
-4 5 6 -7 -8 0
-4 5 -6 7 -8 0
-4 5 -6 -7 8 0
-4 -5 6 7 -8 0
-4 -5 6 -7 8 0
-4 -5 -6 7 8 0
-4 -5 -6 -7 -8 0
9 -10 0
-9 10 0
-11 0
12 13 14 15 16 -17 0
12 13 14 15 -16 17 0
12 13 14 -15 16 17 0
12 13 14 -15 -16 -17 0
12 13 -14 15 16 17 0
12 13 -14 15 -16 -17 0
12 13 -14 -15 16 -17 0
12 13 -14 -15 -16 17 0
12 -13 14 15 16 17 0
12 -13 14 15 -16 -17 0
12 -13 14 -15 16 -17 0
12 -13 14 -15 -16 17 0
12 -13 -14 15 16 -17 0
12 -13 -14 15 -16 17 0
12 -13 -14 -15 16 17 0
12 -13 -14 -15 -16 -17 0
-12 13 14 15 16 17 0
-12 13 14 15 -16 -17 0
-12 13 14 -15 16 -17 0
-12 13 14 -15 -16 17 0
-12 13 -14 15 16 -17 0
-12 13 -14 15 -16 17 0
-12 13 -14 -15 16 17 0
-12 13 -14 -15 -16 -17 0
-12 -13 14 15 16 -17 0
-12 -13 14 15 -16 17 0
-12 -13 14 -15 16 17 0
-12 -13 14 -15 -16 -17 0
-12 -13 -14 15 16 17 0
-12 -13 -14 15 -16 -17 0
-12 -13 -14 -15 16 -17 0
-12 -13 -14 -15 -16 17 0
18 19 20 -21 0
18 19 -20 21 0
18 -19 20 21 0
18 -19 -20 -21 0
-18 19 20 21 0
-18 19 -20 -21 0
-18 -19 20 -21 0
-18 -19 -20 21 0
1 22 -23 0
1 -22 23 0
-1 22 23 0
-1 -22 -23 0
24 25 26 27 -28 0
24 25 26 -27 28 0
24 25 -26 27 28 0
24 25 -26 -27 -28 0
24 -25 26 27 28 0
24 -25 26 -27 -28 0
24 -25 -26 27 -28 0
24 -25 -26 -27 28 0
-24 25 26 27 28 0
-24 25 26 -27 -28 0
-24 25 -26 27 -28 0
-24 25 -26 -27 28 0
-24 -25 26 27 -28 0
-24 -25 26 -27 28 0
-24 -25 -26 27 28 0
-24 -25 -26 -27 -28 0
4 24 29 -30 0
4 24 -29 30 0
4 -24 29 30 0
4 -24 -29 -30 0
-4 24 29 30 0
-4 24 -29 -30 0
-4 -24 29 -30 0
-4 -24 -29 30 0
2 9 11 12 18 31 32 33 -34 0
2 9 11 12 18 31 32 -33 34 0
2 9 11 12 18 31 -32 33 34 0
2 9 11 12 18 31 -32 -33 -34 0
2 9 11 12 18 -31 32 33 34 0
2 9 11 12 18 -31 32 -33 -34 0
2 9 11 12 18 -31 -32 33 -34 0
2 9 11 12 18 -31 -32 -33 34 0
2 9 11 12 -18 31 32 33 34 0
2 9 11 12 -18 31 32 -33 -34 0
2 9 11 12 -18 31 -32 33 -34 0
2 9 11 12 -18 31 -32 -33 34 0
2 9 11 12 -18 -31 32 33 -34 0
2 9 11 12 -18 -31 32 -33 34 0
2 9 11 12 -18 -31 -32 33 34 0
2 9 11 12 -18 -31 -32 -33 -34 0
2 9 11 -12 18 31 32 33 34 0
2 9 11 -12 18 31 32 -33 -34 0
2 9 11 -12 18 31 -32 33 -34 0
2 9 11 -12 18 31 -32 -33 34 0
2 9 11 -12 18 -31 32 33 -34 0
2 9 11 -12 18 -31 32 -33 34 0
2 9 11 -12 18 -31 -32 33 34 0
2 9 11 -12 18 -31 -32 -33 -34 0
2 9 11 -12 -18 31 32 33 -34 0
2 9 11 -12 -18 31 32 -33 34 0
2 9 11 -12 -18 31 -32 33 34 0
2 9 11 -12 -18 31 -32 -33 -34 0
2 9 11 -12 -18 -31 32 33 34 0
2 9 11 -12 -18 -31 32 -33 -34 0
2 9 11 -12 -18 -31 -32 33 -34 0
2 9 11 -12 -18 -31 -32 -33 34 0
2 9 -11 12 18 31 32 33 34 0
2 9 -11 12 18 31 32 -33 -34 0
2 9 -11 12 18 31 -32 33 -34 0
2 9 -11 12 18 31 -32 -33 34 0
2 9 -11 12 18 -31 32 33 -34 0
2 9 -11 12 18 -31 32 -33 34 0
2 9 -11 12 18 -31 -32 33 34 0
2 9 -11 12 18 -31 -32 -33 -34 0
2 9 -11 12 -18 31 32 33 -34 0
2 9 -11 12 -18 31 32 -33 34 0
2 9 -11 12 -18 31 -32 33 34 0
2 9 -11 12 -18 31 -32 -33 -34 0
2 9 -11 12 -18 -31 32 33 34 0
2 9 -11 12 -18 -31 32 -33 -34 0
2 9 -11 12 -18 -31 -32 33 -34 0
2 9 -11 12 -18 -31 -32 -33 34 0
2 9 -11 -12 18 31 32 33 -34 0
2 9 -11 -12 18 31 32 -33 34 0
2 9 -11 -12 18 31 -32 33 34 0
2 9 -11 -12 18 31 -32 -33 -34 0
2 9 -11 -12 18 -31 32 33 34 0
2 9 -11 -12 18 -31 32 -33 -34 0
2 9 -11 -12 18 -31 -32 33 -34 0
2 9 -11 -12 18 -31 -32 -33 34 0
2 9 -11 -12 -18 31 32 33 34 0
2 9 -11 -12 -18 31 32 -33 -34 0
2 9 -11 -12 -18 31 -32 33 -34 0
2 9 -11 -12 -18 31 -32 -33 34 0
2 9 -11 -12 -18 -31 32 33 -34 0
2 9 -11 -12 -18 -31 32 -33 34 0
2 9 -11 -12 -18 -31 -32 33 34 0
2 9 -11 -12 -18 -31 -32 -33 -34 0
2 -9 11 12 18 31 32 33 34 0
2 -9 11 12 18 31 32 -33 -34 0
2 -9 11 12 18 31 -32 33 -34 0
2 -9 11 12 18 31 -32 -33 34 0
2 -9 11 12 18 -31 32 33 -34 0
2 -9 11 12 18 -31 32 -33 34 0
2 -9 11 12 18 -31 -32 33 34 0
2 -9 11 12 18 -31 -32 -33 -34 0
2 -9 11 12 -18 31 32 33 -34 0
2 -9 11 12 -18 31 32 -33 34 0
2 -9 11 12 -18 31 -32 33 34 0
2 -9 11 12 -18 31 -32 -33 -34 0
2 -9 11 12 -18 -31 32 33 34 0
2 -9 11 12 -18 -31 32 -33 -34 0
2 -9 11 12 -18 -31 -32 33 -34 0
2 -9 11 12 -18 -31 -32 -33 34 0
2 -9 11 -12 18 31 32 33 -34 0
2 -9 11 -12 18 31 32 -33 34 0
2 -9 11 -12 18 31 -32 33 34 0
2 -9 11 -12 18 31 -32 -33 -34 0
2 -9 11 -12 18 -31 32 33 34 0
2 -9 11 -12 18 -31 32 -33 -34 0
2 -9 11 -12 18 -31 -32 33 -34 0
2 -9 11 -12 18 -31 -32 -33 34 0
2 -9 11 -12 -18 31 32 33 34 0
2 -9 11 -12 -18 31 32 -33 -34 0
2 -9 11 -12 -18 31 -32 33 -34 0
2 -9 11 -12 -18 31 -32 -33 34 0
2 -9 11 -12 -18 -31 32 33 -34 0
2 -9 11 -12 -18 -31 32 -33 34 0
2 -9 11 -12 -18 -31 -32 33 34 0
2 -9 11 -12 -18 -31 -32 -33 -34 0
2 -9 -11 12 18 31 32 33 -34 0
2 -9 -11 12 18 31 32 -33 34 0
2 -9 -11 12 18 31 -32 33 34 0
2 -9 -11 12 18 31 -32 -33 -34 0
2 -9 -11 12 18 -31 32 33 34 0
2 -9 -11 12 18 -31 32 -33 -34 0
2 -9 -11 12 18 -31 -32 33 -34 0
2 -9 -11 12 18 -31 -32 -33 34 0
2 -9 -11 12 -18 31 32 33 34 0
2 -9 -11 12 -18 31 32 -33 -34 0
2 -9 -11 12 -18 31 -32 33 -34 0
2 -9 -11 12 -18 31 -32 -33 34 0
2 -9 -11 12 -18 -31 32 33 -34 0
2 -9 -11 12 -18 -31 32 -33 34 0
2 -9 -11 12 -18 -31 -32 33 34 0
2 -9 -11 12 -18 -31 -32 -33 -34 0
2 -9 -11 -12 18 31 32 33 34 0
2 -9 -11 -12 18 31 32 -33 -34 0
2 -9 -11 -12 18 31 -32 33 -34 0
2 -9 -11 -12 18 31 -32 -33 34 0
2 -9 -11 -12 18 -31 32 33 -34 0
2 -9 -11 -12 18 -31 32 -33 34 0
2 -9 -11 -12 18 -31 -32 33 34 0
2 -9 -11 -12 18 -31 -32 -33 -34 0
2 -9 -11 -12 -18 31 32 33 -34 0
2 -9 -11 -12 -18 31 32 -33 34 0
2 -9 -11 -12 -18 31 -32 33 34 0
2 -9 -11 -12 -18 31 -32 -33 -34 0
2 -9 -11 -12 -18 -31 32 33 34 0
2 -9 -11 -12 -18 -31 32 -33 -34 0
2 -9 -11 -12 -18 -31 -32 33 -34 0
2 -9 -11 -12 -18 -31 -32 -33 34 0
-2 9 11 12 18 31 32 33 34 0
-2 9 11 12 18 31 32 -33 -34 0
-2 9 11 12 18 31 -32 33 -34 0
-2 9 11 12 18 31 -32 -33 34 0
-2 9 11 12 18 -31 32 33 -34 0
-2 9 11 12 18 -31 32 -33 34 0
-2 9 11 12 18 -31 -32 33 34 0
-2 9 11 12 18 -31 -32 -33 -34 0
-2 9 11 12 -18 31 32 33 -34 0
-2 9 11 12 -18 31 32 -33 34 0
-2 9 11 12 -18 31 -32 33 34 0
-2 9 11 12 -18 31 -32 -33 -34 0
-2 9 11 12 -18 -31 32 33 34 0
-2 9 11 12 -18 -31 32 -33 -34 0
-2 9 11 12 -18 -31 -32 33 -34 0
-2 9 11 12 -18 -31 -32 -33 34 0
-2 9 11 -12 18 31 32 33 -34 0
-2 9 11 -12 18 31 32 -33 34 0
-2 9 11 -12 18 31 -32 33 34 0
-2 9 11 -12 18 31 -32 -33 -34 0
-2 9 11 -12 18 -31 32 33 34 0
-2 9 11 -12 18 -31 32 -33 -34 0
-2 9 11 -12 18 -31 -32 33 -34 0
-2 9 11 -12 18 -31 -32 -33 34 0
-2 9 11 -12 -18 31 32 33 34 0
-2 9 11 -12 -18 31 32 -33 -34 0
-2 9 11 -12 -18 31 -32 33 -34 0
-2 9 11 -12 -18 31 -32 -33 34 0
-2 9 11 -12 -18 -31 32 33 -34 0
-2 9 11 -12 -18 -31 32 -33 34 0
-2 9 11 -12 -18 -31 -32 33 34 0
-2 9 11 -12 -18 -31 -32 -33 -34 0
-2 9 -11 12 18 31 32 33 -34 0
-2 9 -11 12 18 31 32 -33 34 0
-2 9 -11 12 18 31 -32 33 34 0
-2 9 -11 12 18 31 -32 -33 -34 0
-2 9 -11 12 18 -31 32 33 34 0
-2 9 -11 12 18 -31 32 -33 -34 0
-2 9 -11 12 18 -31 -32 33 -34 0
-2 9 -11 12 18 -31 -32 -33 34 0
-2 9 -11 12 -18 31 32 33 34 0
-2 9 -11 12 -18 31 32 -33 -34 0
-2 9 -11 12 -18 31 -32 33 -34 0
-2 9 -11 12 -18 31 -32 -33 34 0
-2 9 -11 12 -18 -31 32 33 -34 0
-2 9 -11 12 -18 -31 32 -33 34 0
-2 9 -11 12 -18 -31 -32 33 34 0
-2 9 -11 12 -18 -31 -32 -33 -34 0
-2 9 -11 -12 18 31 32 33 34 0
-2 9 -11 -12 18 31 32 -33 -34 0
-2 9 -11 -12 18 31 -32 33 -34 0
-2 9 -11 -12 18 31 -32 -33 34 0
-2 9 -11 -12 18 -31 32 33 -34 0
-2 9 -11 -12 18 -31 32 -33 34 0
-2 9 -11 -12 18 -31 -32 33 34 0
-2 9 -11 -12 18 -31 -32 -33 -34 0
-2 9 -11 -12 -18 31 32 33 -34 0
-2 9 -11 -12 -18 31 32 -33 34 0
-2 9 -11 -12 -18 31 -32 33 34 0
-2 9 -11 -12 -18 31 -32 -33 -34 0
-2 9 -11 -12 -18 -31 32 33 34 0
-2 9 -11 -12 -18 -31 32 -33 -34 0
-2 9 -11 -12 -18 -31 -32 33 -34 0
-2 9 -11 -12 -18 -31 -32 -33 34 0
-2 -9 11 12 18 31 32 33 -34 0
-2 -9 11 12 18 31 32 -33 34 0
-2 -9 11 12 18 31 -32 33 34 0
-2 -9 11 12 18 31 -32 -33 -34 0
-2 -9 11 12 18 -31 32 33 34 0
-2 -9 11 12 18 -31 32 -33 -34 0
-2 -9 11 12 18 -31 -32 33 -34 0
-2 -9 11 12 18 -31 -32 -33 34 0
-2 -9 11 12 -18 31 32 33 34 0
-2 -9 11 12 -18 31 32 -33 -34 0
-2 -9 11 12 -18 31 -32 33 -34 0
-2 -9 11 12 -18 31 -32 -33 34 0
-2 -9 11 12 -18 -31 32 33 -34 0
-2 -9 11 12 -18 -31 32 -33 34 0
-2 -9 11 12 -18 -31 -32 33 34 0
-2 -9 11 12 -18 -31 -32 -33 -34 0
-2 -9 11 -12 18 31 32 33 34 0
-2 -9 11 -12 18 31 32 -33 -34 0
-2 -9 11 -12 18 31 -32 33 -34 0
-2 -9 11 -12 18 31 -32 -33 34 0
-2 -9 11 -12 18 -31 32 33 -34 0
-2 -9 11 -12 18 -31 32 -33 34 0
-2 -9 11 -12 18 -31 -32 33 34 0
-2 -9 11 -12 18 -31 -32 -33 -34 0
-2 -9 11 -12 -18 31 32 33 -34 0
-2 -9 11 -12 -18 31 32 -33 34 0
-2 -9 11 -12 -18 31 -32 33 34 0
-2 -9 11 -12 -18 31 -32 -33 -34 0
-2 -9 11 -12 -18 -31 32 33 34 0
-2 -9 11 -12 -18 -31 32 -33 -34 0
-2 -9 11 -12 -18 -31 -32 33 -34 0
-2 -9 11 -12 -18 -31 -32 -33 34 0
-2 -9 -11 12 18 31 32 33 34 0
-2 -9 -11 12 18 31 32 -33 -34 0
-2 -9 -11 12 18 31 -32 33 -34 0
-2 -9 -11 12 18 31 -32 -33 34 0
-2 -9 -11 12 18 -31 32 33 -34 0
-2 -9 -11 12 18 -31 32 -33 34 0
-2 -9 -11 12 18 -31 -32 33 34 0
-2 -9 -11 12 18 -31 -32 -33 -34 0
-2 -9 -11 12 -18 31 32 33 -34 0
-2 -9 -11 12 -18 31 32 -33 34 0
-2 -9 -11 12 -18 31 -32 33 34 0
-2 -9 -11 12 -18 31 -32 -33 -34 0
-2 -9 -11 12 -18 -31 32 33 34 0
-2 -9 -11 12 -18 -31 32 -33 -34 0
-2 -9 -11 12 -18 -31 -32 33 -34 0
-2 -9 -11 12 -18 -31 -32 -33 34 0
-2 -9 -11 -12 18 31 32 33 -34 0
-2 -9 -11 -12 18 31 32 -33 34 0
-2 -9 -11 -12 18 31 -32 33 34 0
-2 -9 -11 -12 18 31 -32 -33 -34 0
-2 -9 -11 -12 18 -31 32 33 34 0
-2 -9 -11 -12 18 -31 32 -33 -34 0
-2 -9 -11 -12 18 -31 -32 33 -34 0
-2 -9 -11 -12 18 -31 -32 -33 34 0
-2 -9 -11 -12 -18 31 32 33 34 0
-2 -9 -11 -12 -18 31 32 -33 -34 0
-2 -9 -11 -12 -18 31 -32 33 -34 0
-2 -9 -11 -12 -18 31 -32 -33 34 0
-2 -9 -11 -12 -18 -31 32 33 -34 0
-2 -9 -11 -12 -18 -31 32 -33 34 0
-2 -9 -11 -12 -18 -31 -32 33 34 0
-2 -9 -11 -12 -18 -31 -32 -33 -34 0
22 35 36 -37 0
22 35 -36 37 0
22 -35 36 37 0
22 -35 -36 -37 0
-22 35 36 37 0
-22 35 -36 -37 0
-22 -35 36 -37 0
-22 -35 -36 37 0
5 13 -35 0
5 -13 35 0
-5 13 35 0
-5 -13 -35 0
14 19 -25 0
14 -19 25 0
-14 19 25 0
-14 -19 -25 0
15 26 29 31 38 -39 0
15 26 29 31 -38 39 0
15 26 29 -31 38 39 0
15 26 29 -31 -38 -39 0
15 26 -29 31 38 39 0
15 26 -29 31 -38 -39 0
15 26 -29 -31 38 -39 0
15 26 -29 -31 -38 39 0
15 -26 29 31 38 39 0
15 -26 29 31 -38 -39 0
15 -26 29 -31 38 -39 0
15 -26 29 -31 -38 39 0
15 -26 -29 31 38 -39 0
15 -26 -29 31 -38 39 0
15 -26 -29 -31 38 39 0
15 -26 -29 -31 -38 -39 0
-15 26 29 31 38 39 0
-15 26 29 31 -38 -39 0
-15 26 29 -31 38 -39 0
-15 26 29 -31 -38 39 0
-15 26 -29 31 38 -39 0
-15 26 -29 31 -38 39 0
-15 26 -29 -31 38 39 0
-15 26 -29 -31 -38 -39 0
-15 -26 29 31 38 -39 0
-15 -26 29 31 -38 39 0
-15 -26 29 -31 38 39 0
-15 -26 29 -31 -38 -39 0
-15 -26 -29 31 38 39 0
-15 -26 -29 31 -38 -39 0
-15 -26 -29 -31 38 -39 0
-15 -26 -29 -31 -38 39 0
32 38 -40 0
32 -38 40 0
-32 38 40 0
-32 -38 -40 0
3 6 -27 0
3 -6 27 0
-3 6 27 0
-3 -6 -27 0
7 20 23 -40 0
7 20 -23 40 0
7 -20 23 40 0
7 -20 -23 -40 0
-7 20 23 40 0
-7 20 -23 -40 0
-7 -20 23 -40 0
-7 -20 -23 40 0
-30 0
8 10 16 33 36 -39 0
8 10 16 33 -36 39 0
8 10 16 -33 36 39 0
8 10 16 -33 -36 -39 0
8 10 -16 33 36 39 0
8 10 -16 33 -36 -39 0
8 10 -16 -33 36 -39 0
8 10 -16 -33 -36 39 0
8 -10 16 33 36 39 0
8 -10 16 33 -36 -39 0
8 -10 16 -33 36 -39 0
8 -10 16 -33 -36 39 0
8 -10 -16 33 36 -39 0
8 -10 -16 33 -36 39 0
8 -10 -16 -33 36 39 0
8 -10 -16 -33 -36 -39 0
-8 10 16 33 36 39 0
-8 10 16 33 -36 -39 0
-8 10 16 -33 36 -39 0
-8 10 16 -33 -36 39 0
-8 10 -16 33 36 -39 0
-8 10 -16 33 -36 39 0
-8 10 -16 -33 36 39 0
-8 10 -16 -33 -36 -39 0
-8 -10 16 33 36 -39 0
-8 -10 16 33 -36 39 0
-8 -10 16 -33 36 39 0
-8 -10 16 -33 -36 -39 0
-8 -10 -16 33 36 39 0
-8 -10 -16 33 -36 -39 0
-8 -10 -16 -33 36 -39 0
-8 -10 -16 -33 -36 39 0
17 21 28 34 -37 0
17 21 28 -34 37 0
17 21 -28 34 37 0
17 21 -28 -34 -37 0
17 -21 28 34 37 0
17 -21 28 -34 -37 0
17 -21 -28 34 -37 0
17 -21 -28 -34 37 0
-17 21 28 34 37 0
-17 21 28 -34 -37 0
-17 21 -28 34 -37 0
-17 21 -28 -34 37 0
-17 -21 28 34 -37 0
-17 -21 28 -34 37 0
-17 -21 -28 34 37 0
-17 -21 -28 -34 -37 0